%NprocShared=ZZZ
%chk=l_ala_ompZZZ.chk
# B3LYP/6-31G* Force scf(maxcycles=128,diis,conver=8) integral(grid=sg1grid)

l_ala

0 1
C     -1.072478    0.898301   -0.510173
C     -0.335641   -0.378976   -0.152239
C      1.121573   -0.154011   -0.004149
O      1.642993   -0.367208    1.139968
O      1.893455    0.276167   -1.081197
N     -0.866181   -0.817389    1.118520
H     -0.849535    1.198815   -1.541349
H     -2.157620    0.703190   -0.403082
H     -0.710299    1.679119    0.204474
H     -0.547929   -1.105873   -0.947962
H      2.906571    0.255865   -0.948338
H     -0.343734   -0.335205    1.893232
H     -0.681176   -1.852796    1.232295


